Gurobi 12.0.0:   lim:time = 14400
  mip:bestbound = 1
Set parameter LogToConsole to value 1
  tech:outlev = 1
Set parameter InfUnbdInfo to value 1
Gurobi Optimizer version 12.0.0 build v12.0.0rc1 (win64 - Windows 11.0 (26100.2))

CPU model: 11th Gen Intel(R) Core(TM) i7-11700 @ 2.50GHz, instruction set [SSE2|AVX|AVX2|AVX512]
Thread count: 8 physical cores, 16 logical processors, using up to 16 threads

Non-default parameters:
TimeLimit  14400
InfUnbdInfo  1

Optimize a model with 403 rows, 1213 columns and 5938 nonzeros
Model fingerprint: 0x3d3dda40
Model has 4 quadratic constraints
Variable types: 33 continuous, 1180 integer (0 binary)
Coefficient statistics:
  Matrix range     [1e+00, 1e+05]
  QMatrix range    [1e+00, 1e+00]
  QLMatrix range   [3e+00, 3e+01]
  Objective range  [3e-01, 4e+01]
  Bounds range     [1e+00, 1e+02]
  RHS range        [1e+00, 1e+05]
  QRHS range       [1e+02, 1e+02]
Presolve removed 39 rows and 56 columns
Presolve time: 0.02s
Presolved: 1104 rows, 1773 columns, 8876 nonzeros
Variable types: 16 continuous, 1757 integer (1627 binary)
Found heuristic solution: objective 181.7481000

Root relaxation: objective 6.854576e+01, 71 iterations, 0.00 seconds (0.00 work units)

    Nodes    |    Current Node    |     Objective Bounds      |     Work
 Expl Unexpl |  Obj  Depth IntInf | Incumbent    BestBd   Gap | It/Node Time

     0     0   68.54576    0   28  181.74810   68.54576  62.3%     -    0s
H    0     0                     124.7449000   68.54576  45.1%     -    0s
H    0     0                     121.8869000   68.54576  43.8%     -    0s
     0     0   87.31301    0   25  121.88690   87.31301  28.4%     -    0s
     0     0   87.31301    0   24  121.88690   87.31301  28.4%     -    0s
     0     0   87.65458    0   24  121.88690   87.65458  28.1%     -    0s
H    0     0                     114.4756000   87.65458  23.4%     -    0s
     0     0   87.65458    0   26  114.47560   87.65458  23.4%     -    0s
     0     0   87.65458    0   23  114.47560   87.65458  23.4%     -    0s
     0     0   87.65458    0   23  114.47560   87.65458  23.4%     -    0s
     0     2   87.65458    0   23  114.47560   87.65458  23.4%     -    0s
H   26    61                     113.2231000   87.65458  22.6%  16.7    0s
H   55    61                     112.0132000   87.65458  21.7%  13.9    0s
H  113   116                     109.5449000   87.65458  20.0%  13.0    0s
H 2656  1182                     108.3363000   90.73258  16.2%  12.1    1s
H 2703  1166                     106.7052000   91.35643  14.4%  12.5    1s
 11781  2489  104.88503   24   32  106.70520   96.04399  10.0%  12.7    5s
 25111  4177     cutoff   43       106.70520   98.52308  7.67%  12.5   10s
*35044  4542              35     106.5190000  100.09282  6.03%  12.4   12s
 43150  3556 infeasible   33       106.51900  101.29755  4.90%  12.5   15s

Cutting planes:
  Learned: 33
  Gomory: 45
  Cover: 48
  Implied bound: 65
  MIR: 12
  Mixing: 33
  StrongCG: 2
  Flow cover: 171
  GUB cover: 2
  Inf proof: 20
  Zero half: 22
  RLT: 49
  Relax-and-lift: 2

Explored 52752 nodes (663726 simplex iterations) in 17.68 seconds (10.00 work units)
Thread count was 16 (of 16 available processors)

Solution count 10: 106.519 106.519 106.705 ... 124.745

Optimal solution found (tolerance 1.00e-04)
Best objective 1.065190000000e+02, best bound 1.065190000000e+02, gap 0.0000%
-----RESULTS INFO-----
running_time:  17.813000000000002
TC.best_bound:  106.519
TC:  106.51899999999998
MIP Gap (%):  2.668229088745108e-14
=== Vehicle Routes ===
Vehicle 1: 0 → 21
Vehicle 2: 0 → 21
Vehicle 3: 0 → 12
Vehicle 3: 1 → 2
Vehicle 3: 2 → 21
Vehicle 3: 12 → 13
Vehicle 3: 13 → 1
Vehicle 4: 0 → 4
Vehicle 4: 3 → 14
Vehicle 4: 4 → 16
Vehicle 4: 14 → 15
Vehicle 4: 15 → 21
Vehicle 4: 16 → 19
Vehicle 4: 19 → 3

=== Full Vehicle Routes ===
Vehicle 1: 0 → 0 (0<100)
Vehicle 2: 0 → 0 (0<100)
Vehicle 3: 0 → 12 → 13 → 1 → 2 → 0 (66<100)
Vehicle 4: 0 → 4 → 16 → 19 → 3 → 14 → 15 → 0 (95<100)
Arc used by MRT line: y variables:
Customer assigment to PL: u variables:
5 15
6 19
7 14
8 13
9 16
10 19
11 15
Node is served by regular vehicle: g variables:
1
2
3
4
12
19
13
14
15
16
Customer assigment to Home delivery: gm variables:
1
2
3
4
12
Node total demands: ntd variables:
1 29 1
2 3 1
3 9 1
4 8 1
9 0 0
10 0 0
11 0 0
12 7 1
19 38 1
20 0 0
13 27 1
14 17 1
15 19 1
16 4 1
17 0 0
18 0 0
Customer's demand delivered to PL: l variables:
5
6
7
8
9
10
11
Lockers load <= capacity:
38 <= 57
0 <= 64
27 <= 69
17 <= 94
19 <= 54
4 <= 83
0 <= 64
0 <= 95
